(set-logic ALL)
(declare-const a_random2_0 Int)
(declare-const a_random5_0 Int)
(declare-fun seed0_T_8 () Bool)
(declare-fun seed0_T_SELECT_2 () Bool)
(declare-fun seed0_I0_18 () Int)
(declare-fun seed0_I0_9 () Int)
(declare-fun seed0_I1_18 () Int)
(declare-fun seed0_I2_18 () Int)
(declare-fun seed0_PCTEMP_LHS_2 () Int)
(declare-fun seed0_T_b () Int)
(declare-fun seed0_T_c () Int)
(declare-fun seed0_T0_9 () String)
(declare-fun seed0_T1_9 () String)
(declare-fun seed0_T2_9 () String)
(declare-fun seed0_T3_9 () String)
(declare-fun seed0_T4_9 () String)
(declare-fun seed0_T5_9 () String)
(declare-fun seed0_var_0xINPUT_13852 () String)
(assert (and (or (str.<= seed0_var_0xINPUT_13852 (str.++ seed0_T0_9 seed0_T1_9)) (=> (>= (div seed0_I0_9 seed0_I2_18) (- seed0_I2_18 (- 525))) (< (* seed0_PCTEMP_LHS_2 seed0_T_c) (+ seed0_T_b 863)))) (or (str.contains seed0_T1_9 (str.++ seed0_T2_9 seed0_T3_9)) (not (str.< (str.++ seed0_T1_9 "IjCEYHZhixOo1K") (str.++ seed0_var_0xINPUT_13852 "sXl")))) (or (str.contains seed0_T2_9 (str.++ seed0_T4_9 seed0_T5_9)) (not (<= (div seed0_I0_18 seed0_I0_18) (- seed0_T_c (- 167))))) (or (not (str.in_re seed0_T4_9 (str.to_re "__utmz=169413169."))) (not (< (+ seed0_I0_18 2) (mod seed0_T_b seed0_T_c)))) (or (= seed0_T5_9 "__utmz=169413169.") (=> (str.<= (str.++ seed0_var_0xINPUT_13852 "NP4f") (str.++ seed0_T4_9 "gwD1A0CMtEv4KdYP3axo")) (str.contains (str.++ seed0_T3_9 "Wyn1EZiFAofdYSOsa") (str.++ seed0_T2_9 "PhDRKqpVo3ic")))) (or seed0_T_8 (str.contains (str.++ seed0_var_0xINPUT_13852 "kiAbNT") (str.++ seed0_T4_9 "K"))) (or (= seed0_T_8 (< (- 1) seed0_PCTEMP_LHS_2)) (=> (str.contains (str.++ seed0_T4_9 "JZBsLpwGSxa") (str.++ seed0_T0_9 "0eIEgGy3X1RVwiZYbHkC")) (str.prefixof (str.++ seed0_var_0xINPUT_13852 "WuCQAcVoE") (str.++ seed0_T4_9 "8fkdq9i4")))) (or (> (+ seed0_T_c a_random5_0) seed0_T_b) (and (str.prefixof (str.++ seed0_T0_9 "3H6ynlhdOA8RJCqG") (str.++ seed0_T3_9 "VLe8fiGuJpXCydOF7BAn")) (str.<= (str.++ seed0_T5_9 "1N30") (str.++ seed0_var_0xINPUT_13852 "LRjpH4iJZ7T8BG9yX")))) (or (>= seed0_I2_18 seed0_I1_18) (not (str.prefixof (str.++ seed0_var_0xINPUT_13852 "pWx6ieFtXK78") (str.++ seed0_T3_9 "JNzImAuylqQWVK07a")))) (or (< seed0_T_c (+ seed0_I1_18 a_random2_0)) (not (<= (div seed0_T_c seed0_I0_18) (* seed0_PCTEMP_LHS_2 seed0_T_c)))) (or (>= seed0_I0_18 (- seed0_T_c seed0_T_b)) (str.<= (str.++ seed0_T4_9 "0BtgufZ") (str.++ seed0_T3_9 "Zk5cLzNlxED3hA2"))) (or (>= seed0_T_b 0) (or (str.prefixof (str.++ seed0_T5_9 "TzbGx8wure") (str.++ seed0_var_0xINPUT_13852 "5LVDR")) (str.<= (str.++ seed0_T2_9 "f") (str.++ seed0_var_0xINPUT_13852 "TNxvU0Jr")))) (or (>= seed0_T_b (+ seed0_PCTEMP_LHS_2 7)) (not (str.suffixof (str.++ seed0_T2_9 "lpuK5TmzJcYjM") (str.++ seed0_T2_9 "4bnG6j1Kc9")))) (or (>= seed0_PCTEMP_LHS_2 (+ seed0_I0_9 0)) (or (str.<= (str.++ seed0_T3_9 "OD69E0x") (str.++ seed0_T1_9 "X1")) (str.suffixof (str.++ seed0_T2_9 "osJbW") (str.++ seed0_T3_9 "c7BMnSEliRZwd")))) (or (= seed0_T_SELECT_2 (not (= seed0_PCTEMP_LHS_2 (- 1)))) (and (str.< (str.++ seed0_T2_9 "3cdvJk9n8Z10") (str.++ seed0_T1_9 "w")) (str.contains (str.++ seed0_T1_9 "U9i") (str.++ seed0_T3_9 "kU")))) (or (= 0 (str.len seed0_T0_9)) (or (= (mod seed0_I2_18 seed0_T_b) (- seed0_I2_18 (- 892))) (>= (* seed0_I1_18 seed0_T_c) (- seed0_I2_18 5)))) (or (>= seed0_I0_9 (str.len seed0_T4_9)) (=> (>= (+ seed0_T_c 653) (* seed0_I1_18 seed0_PCTEMP_LHS_2)) (>= (+ seed0_I1_18 (- 778)) (+ seed0_T_b 163)))) (or seed0_T_SELECT_2 (not (distinct (div seed0_T_c seed0_I2_18) (mod seed0_I0_18 seed0_I0_9))))))
(assert (> a_random2_0 0))
(assert (> a_random5_0 0))
(check-sat)
(exit)